NAME : random_14
COMMENT : 40 random nodes
TYPE : TSP
DIMENSION : 40
EDGE_WEIGHT_TYPE : EUC_2D
NODE_COORD_SECTION
1 74 147
2 688 937
3 476 835
4 715 861
5 659 225
6 461 752
7 776 536
8 714 962
9 17 970
10 707 478
11 99 998
12 66 958
13 549 386
14 257 858
15 586 616
16 640 834
17 323 440
18 560 261
19 434 330
20 48 538
21 529 135
22 826 534
23 946 218
24 489 439
25 281 489
26 677 77
27 217 802
28 736 937
29 690 572
30 527 657
31 651 178
32 646 607
33 254 445
34 674 848
35 460 413
36 717 890
37 113 127
38 289 62
39 629 660
40 433 765
EOF